NAME : X_18_seed_123_id_14
TYPE : CVRP
DIMENSION : 181
EDGE_WEIGHT_TYPE : EUC_2D
CAPACITY : 8
NODE_COORD_SECTION
1	712	274
2	587	604
3	835	814
4	493	356
5	595	698
6	517	735
7	426	473
8	501	495
9	438	382
10	634	698
11	443	491
12	730	721
13	617	711
14	764	688
15	395	542
16	557	644
17	493	699
18	403	424
19	714	698
20	613	598
21	466	359
22	820	865
23	429	521
24	498	697
25	564	582
26	329	671
27	846	853
28	687	759
29	491	733
30	521	671
31	465	488
32	582	654
33	417	468
34	524	656
35	601	697
36	343	724
37	471	740
38	551	579
39	848	832
40	558	642
41	418	464
42	607	631
43	531	723
44	610	328
45	606	753
46	606	635
47	584	680
48	567	553
49	406	387
50	350	443
51	630	518
52	866	750
53	545	499
54	734	702
55	541	734
56	469	363
57	478	737
58	422	457
59	609	604
60	494	594
61	518	471
62	730	655
63	543	672
64	535	380
65	547	689
66	829	833
67	360	355
68	732	859
69	539	305
70	586	382
71	587	582
72	609	568
73	521	615
74	548	769
75	435	489
76	571	802
77	635	611
78	881	875
79	599	492
80	542	713
81	526	704
82	519	638
83	815	770
84	464	575
85	927	634
86	474	501
87	836	805
88	465	746
89	444	533
90	405	467
91	418	345
92	832	758
93	554	705
94	434	508
95	446	734
96	617	531
97	694	747
98	620	788
99	419	291
100	497	503
101	589	773
102	668	605
103	412	405
104	579	733
105	506	695
106	554	685
107	429	478
108	531	314
109	619	614
110	518	408
111	628	619
112	490	394
113	512	749
114	565	665
115	578	634
116	548	434
117	508	271
118	654	569
119	511	748
120	590	673
121	803	815
122	598	760
123	690	732
124	449	472
125	456	869
126	883	837
127	373	520
128	837	911
129	653	582
130	455	690
131	950	825
132	642	756
133	830	807
134	438	538
135	390	209
136	573	674
137	442	743
138	366	396
139	716	621
140	524	638
141	636	684
142	598	409
143	796	918
144	871	835
145	626	634
146	686	940
147	613	393
148	340	535
149	649	589
150	457	813
151	380	440
152	601	898
153	584	613
154	525	793
155	200	368
156	571	611
157	685	703
158	430	795
159	454	654
160	523	802
161	734	818
162	571	695
163	818	850
164	437	341
165	630	752
166	673	641
167	455	489
168	634	650
169	579	621
170	636	314
171	749	794
172	366	426
173	557	525
174	650	566
175	446	717
176	875	823
177	503	712
178	699	713
179	937	796
180	581	558
181	604	694
DEMAND_SECTION
1	0
2	1
3	1
4	1
5	1
6	1
7	1
8	1
9	1
10	1
11	1
12	1
13	1
14	1
15	1
16	1
17	1
18	1
19	1
20	1
21	1
22	1
23	1
24	1
25	1
26	1
27	1
28	1
29	1
30	1
31	1
32	1
33	1
34	1
35	1
36	1
37	1
38	1
39	1
40	1
41	1
42	1
43	1
44	1
45	1
46	1
47	1
48	1
49	1
50	1
51	1
52	1
53	1
54	1
55	1
56	1
57	1
58	1
59	1
60	1
61	1
62	1
63	1
64	1
65	1
66	1
67	1
68	1
69	1
70	1
71	1
72	1
73	1
74	1
75	1
76	1
77	1
78	1
79	1
80	1
81	1
82	1
83	1
84	1
85	1
86	1
87	1
88	1
89	1
90	1
91	1
92	1
93	1
94	1
95	1
96	1
97	1
98	1
99	1
100	1
101	1
102	1
103	1
104	1
105	1
106	1
107	1
108	1
109	1
110	1
111	1
112	1
113	1
114	1
115	1
116	1
117	1
118	1
119	1
120	1
121	1
122	1
123	1
124	1
125	1
126	1
127	1
128	1
129	1
130	1
131	1
132	1
133	1
134	1
135	1
136	1
137	1
138	1
139	1
140	1
141	1
142	1
143	1
144	1
145	1
146	1
147	1
148	1
149	1
150	1
151	1
152	1
153	1
154	1
155	1
156	1
157	1
158	1
159	1
160	1
161	1
162	1
163	1
164	1
165	1
166	1
167	1
168	1
169	1
170	1
171	1
172	1
173	1
174	1
175	1
176	1
177	1
178	1
179	1
180	1
181	1
DEPOT_SECTION
1
-1
EOF
